10
0 25 24 7 12 14 22 5 16 13 
7 0 8 6 15 22 8 9 16 19 
5 6 0 23 22 25 17 11 20 23 
11 9 17 0 25 10 20 10 19 22 
10 18 17 12 0 24 17 14 5 21 
13 23 8 5 18 0 17 11 25 15 
25 16 13 7 18 9 0 22 16 20 
10 13 25 6 16 10 10 0 21 8 
9 5 20 14 21 23 24 16 0 8 
14 22 24 14 24 23 8 7 13 0 
